benchmarks/simple/result/bug2.output
sat
(model
  (define-fun x0 () String
    "ba")
  (define-fun x1 () String
    "adsc")
  (define-fun i () Int
    4)
)
